p cnf 146 455
c t mc
-1 -2 -3 0
1 2 -3 0
-1 2 3 0
1 -2 3 0
-5 1 0
-5 4 0
-1 -4 5 0
6 3 0
6 5 0
-3 -5 -6 0
-9 7 0
-9 -8 0
-7 8 9 0
12 -10 0
12 -11 0
10 11 -12 0
12 13 -14 0
-12 -13 -14 0
12 -13 14 0
-12 13 14 0
17 15 0
17 -16 0
-15 16 -17 0
-19 4 0
-19 -18 0
-4 18 19 0
20 -18 0
20 -1 0
18 1 -20 0
-19 -20 -21 0
19 20 -21 0
-19 20 21 0
19 -20 21 0
-22 -17 0
-22 -21 0
17 21 22 0
-14 -22 -23 0
14 22 -23 0
-14 22 23 0
14 -22 23 0
-9 23 -24 0
9 -23 -24 0
-9 -23 24 0
9 23 24 0
-25 4 0
-25 -24 0
-4 24 25 0
-27 -8 0
-27 -26 0
8 26 27 0
-27 12 -28 0
27 -12 -28 0
-27 -12 28 0
27 12 28 0
33 -3 0
33 -32 0
3 32 -33 0
-33 34 0
33 34 0
35 31 0
35 -34 0
-31 34 -35 0
36 -30 0
36 35 0
30 -35 -36 0
-9 36 -37 0
9 -36 -37 0
-9 -36 37 0
9 36 37 0
38 2 0
38 12 0
-2 -12 -38 0
-39 -38 0
-39 -29 0
38 29 39 0
-40 37 0
-40 39 0
-37 -39 40 0
29 40 -41 0
-29 -40 -41 0
29 -40 41 0
-29 40 41 0
28 41 -42 0
-28 -41 -42 0
28 -41 42 0
-28 41 42 0
44 -9 0
44 43 0
9 -43 -44 0
-45 31 0
-45 -44 0
-31 44 45 0
46 42 0
46 45 0
-42 -45 -46 0
47 -25 0
47 -46 0
25 46 -47 0
-6 -47 -48 0
6 47 -48 0
-6 47 48 0
6 -47 48 0
50 -49 0
50 2 0
49 -2 -50 0
50 35 -51 0
-50 -35 -51 0
50 -35 51 0
-50 35 51 0
-52 13 0
-52 7 0
-13 -7 52 0
20 52 -53 0
-20 -52 -53 0
20 -52 53 0
-20 52 53 0
-54 1 0
-54 53 0
-1 -53 54 0
55 -54 0
55 22 0
54 -22 -55 0
34 -55 -56 0
-34 55 -56 0
34 55 56 0
-34 -55 56 0
51 56 -57 0
-51 -56 -57 0
51 -56 57 0
-51 56 57 0
-58 -48 0
-58 -57 0
48 57 58 0
-59 60 -61 0
59 -60 -61 0
-59 -60 61 0
59 60 61 0
62 2 0
62 29 0
-2 -29 -62 0
-63 -62 0
-63 -16 0
62 16 63 0
-64 -21 0
-64 15 0
21 -15 64 0
-65 32 0
-65 37 0
-32 -37 65 0
66 64 0
66 65 0
-64 -65 -66 0
-67 63 0
-67 66 0
-63 -66 67 0
-68 61 0
-68 67 0
-61 -67 68 0
29 -16 -69 0
-29 16 -69 0
29 16 69 0
-29 -16 69 0
-70 69 0
-70 -59 0
-69 59 70 0
-37 12 -71 0
37 -12 -71 0
-37 -12 71 0
37 12 71 0
73 -22 0
73 72 0
22 -72 -73 0
-74 72 0
-74 -59 0
-72 59 74 0
-75 -59 0
-75 -32 0
59 32 75 0
-76 75 0
-76 33 0
-75 -33 76 0
77 74 0
77 76 0
-74 -76 -77 0
79 78 0
79 4 0
-78 -4 -79 0
-80 -50 0
-80 50 0
81 -31 0
81 -37 0
31 37 -81 0
-82 -80 0
-82 -81 0
80 81 82 0
83 -79 0
83 82 0
79 -82 -83 0
77 83 -84 0
-77 -83 -84 0
77 -83 84 0
-77 83 84 0
85 73 0
85 84 0
-73 -84 -85 0
-71 85 -86 0
71 -85 -86 0
-71 -85 86 0
71 85 86 0
-87 -70 0
-87 -86 0
70 86 87 0
88 68 0
88 -87 0
-68 87 -88 0
89 -7 0
89 -11 0
7 11 -89 0
2 89 -90 0
-2 -89 -90 0
2 -89 90 0
-2 89 90 0
-91 7 0
-91 90 0
-7 -90 91 0
-92 -36 0
-92 2 0
36 -2 92 0
-93 30 -94 0
93 -30 -94 0
-93 -30 94 0
93 30 94 0
-95 -59 0
-95 -81 0
59 81 95 0
96 94 0
96 95 0
-94 -95 -96 0
-92 96 -97 0
92 -96 -97 0
-92 -96 97 0
92 96 97 0
-2 -52 -98 0
2 52 -98 0
-2 52 98 0
2 -52 98 0
99 97 0
99 98 0
-97 -98 -99 0
-100 81 0
-100 -60 0
-81 60 100 0
100 80 -101 0
-100 -80 -101 0
100 -80 101 0
-100 80 101 0
-102 -30 0
-102 29 0
30 -29 102 0
103 -102 0
103 17 0
102 -17 -103 0
-104 -101 0
-104 103 0
101 -103 104 0
-105 75 0
-105 -35 0
-75 35 105 0
105 -74 -106 0
-105 74 -106 0
105 74 106 0
-105 -74 106 0
-107 104 0
-107 -106 0
-104 106 107 0
-109 20 0
-109 108 0
-20 -108 109 0
-72 11 -110 0
72 -11 -110 0
-72 -11 110 0
72 11 110 0
22 -110 -111 0
-22 110 -111 0
22 110 111 0
-22 -110 111 0
-109 -111 -112 0
109 111 -112 0
-109 111 112 0
109 -111 112 0
113 107 0
113 112 0
-107 -112 -113 0
114 99 0
114 113 0
-99 -113 -114 0
-115 -91 0
-115 -114 0
91 114 115 0
88 -115 -116 0
-88 115 -116 0
88 115 116 0
-88 -115 116 0
117 59 0
117 -89 0
-59 89 -117 0
-118 15 0
-118 20 0
-15 -20 118 0
-119 -15 0
-119 43 0
15 -43 119 0
-36 119 -120 0
36 -119 -120 0
-36 -119 120 0
36 119 120 0
121 118 0
121 120 0
-118 -120 -121 0
-122 53 0
-122 -50 0
-53 50 122 0
-123 35 0
-123 -69 0
-35 69 123 0
124 -122 0
124 -123 0
122 123 -124 0
81 9 -125 0
-81 -9 -125 0
81 -9 125 0
-81 9 125 0
-125 34 -126 0
125 -34 -126 0
-125 -34 126 0
125 34 126 0
124 126 -127 0
-124 -126 -127 0
124 -126 127 0
-124 126 127 0
-128 -125 0
-128 -23 0
125 23 128 0
129 128 0
129 -37 0
-128 37 -129 0
-130 -11 0
-130 -35 0
11 35 130 0
-131 -129 0
-131 -130 0
129 130 131 0
-76 105 -132 0
76 -105 -132 0
-76 -105 132 0
76 105 132 0
-2 10 -133 0
2 -10 -133 0
-2 -10 133 0
2 10 133 0
134 -133 0
134 5 0
133 -5 -134 0
135 132 0
135 -134 0
-132 134 -135 0
-131 -135 -136 0
131 135 -136 0
-131 135 136 0
131 -135 136 0
137 -127 0
137 -136 0
127 136 -137 0
121 -137 -138 0
-121 137 -138 0
121 137 138 0
-121 -137 138 0
-35 -128 -139 0
35 128 -139 0
-35 128 139 0
35 -128 139 0
140 -3 0
140 17 0
3 -17 -140 0
141 36 0
141 140 0
-36 -140 -141 0
142 139 0
142 -141 0
-139 141 -142 0
143 -138 0
143 142 0
138 -142 -143 0
144 -117 0
144 -143 0
117 143 -144 0
145 116 0
145 -144 0
-116 144 -145 0
146 58 0
146 145 0
-58 -145 -146 0
136 31 -104 135 70 50 108 -2 0
-38 -129 51 66 0
145 21 117 122 130 0
-134 101 107 -111 -25 0
-80 -117 107 145 -22 -93 74 102 75 0
5 30 -117 123 83 -75 130 110 45 0
5 3 -146 -72 9 -102 -115 0
105 84 132 -63 -26 0
58 -18 34 15 -124 133 20 13 87 -146 0
-107 61 145 38 -141 59 60 112 -65 28 0
7 131 -122 -91 -3 -90 0
-20 -78 46 14 -128 -144 0
-17 -105 -51 0
62 59 128 -142 -131 85 25 65 44 43 0
110 -120 -44 -132 -140 6 -85 -104 -80 0
-24 -117 -96 0
95 -143 -50 22 136 12 30 -26 37 0
47 -128 77 -144 0
-119 -16 47 0
-98 18 118 43 -10 124 -42 117 0
38 62 47 -24 92 55 0
-122 72 87 85 33 90 0
109 117 121 0
139 19 -34 107 -127 -108 -23 0
6 121 26 -49 48 32 -28 0
-89 -12 81 -109 -124 10 0
134 119 -64 140 120 74 0
56 6 38 -64 48 -8 -92 -44 0
-116 -39 -34 0
-72 61 -25 -23 -86 119 -3 -131 29 0
-114 81 -49 70 -140 116 45 -97 -125 0
-75 76 -32 143 -90 0
100 -108 -81 -91 -50 8 0
-138 -137 117 -46 -91 0
-78 6 -44 0
82 -105 -23 88 -78 109 -29 -92 -74 0
-135 -95 -146 100 -114 42 52 0
28 -83 57 48 89 0
-58 52 -13 120 61 84 131 -132 0
110 73 143 -94 0
114 91 -98 -47 -130 -67 -71 22 0
12 33 -55 19 140 -138 135 -133 -41 131 0
108 -32 -83 -118 0
-13 41 -49 0
-59 -42 51 54 -142 48 22 23 -66 0
143 49 88 0
102 -104 -115 16 0
-103 -93 -126 -48 135 102 0
-107 -14 73 8 56 139 0
53 47 33 -38 58 -29 122 -60 0
-138 139 128 120 0
134 90 63 -113 0
146 0
